(set-logic QF_S)
(declare-fun var0 () String)
(declare-fun var1 () String)
(declare-fun var2 () String)
(declare-fun var3 () String)
(declare-fun var4 () String)
(declare-fun var5 () String)
(declare-fun var6 () String)
(declare-fun var7 () String)
(declare-fun var8 () String)
(declare-fun var9 () String)
(declare-fun var10 () String)
(declare-fun var11 () String)
(declare-fun var12 () String)
(declare-fun var13 () String)
(declare-fun var14 () String)
(declare-fun var15 () String)
(declare-fun var16 () String)
(declare-fun var17 () String)
(declare-fun var18 () String)
(declare-fun var19 () String)
(declare-fun var20 () String)
(declare-fun var21 () String)
(declare-fun var22 () String)
(declare-fun var23 () String)
(declare-fun var24 () String)
(declare-fun var25 () String)
(declare-fun var26 () String)
(declare-fun var27 () String)
(declare-fun var28 () String)
(declare-fun var29 () String)
(declare-fun var30 () String)
(declare-fun var31 () String)
(declare-fun var32 () String)
(declare-fun var33 () String)
(declare-fun var34 () String)
(declare-fun var35 () String)
(declare-fun var36 () String)
(declare-fun var37 () String)
(declare-fun var38 () String)
(declare-fun var39 () String)
(declare-fun var40 () String)
(declare-fun var41 () String)
(declare-fun var42 () String)
(declare-fun var43 () String)
(declare-fun var44 () String)
(declare-fun var45 () String)
(declare-fun var46 () String)
(declare-fun var47 () String)
(declare-fun var48 () String)
(declare-fun var49 () String)
(declare-fun var50 () String)
(declare-fun var51 () String)
(declare-fun var52 () String)
(declare-fun var53 () String)
(declare-fun var54 () String)
(declare-fun var55 () String)
(declare-fun var56 () String)
(declare-fun var57 () String)
(declare-fun var58 () String)
(declare-fun var59 () String)
(declare-fun var60 () String)
(assert (= var0 (Concat var1 var2)))
(assert (= var2 (Concat var3 var4)))
(assert (= var4 (Concat var5 var6)))
(assert (= var6 (Concat var7 var8)))
(assert (= var8 (Concat var9 var10)))
(assert (= var10 (Concat var11 var12)))
(assert (= var12 (Concat var13 var14)))
(assert (= var14 (Concat var15 var16)))
(assert (= var16 (Concat var17 var18)))
(assert (= var18 (Concat var19 var20)))
(assert (= var20 (Concat var21 var22)))
(assert (= var22 (Concat var23 var24)))
(assert (= var24 (Concat var25 var26)))
(assert (= var26 (Concat var27 var28)))
(assert (= var28 (Concat var29 var30)))
(assert (= var30 (Concat var31 var32)))
(assert (= var32 (Concat var33 var34)))
(assert (= var34 (Concat var35 var36)))
(assert (= var36 (Concat var37 var38)))
(assert (= var38 (Concat var39 var40)))
(assert (= var40 (Concat var41 var42)))
(assert (= var42 (Concat var43 var44)))
(assert (= var44 (Concat var45 var46)))
(assert (= var46 (Concat var47 var48)))
(assert (= var48 (Concat var49 var50)))
(assert (= var50 (Concat var51 var52)))
(assert (= var52 (Concat var53 var54)))
(assert (= var54 (Concat var55 var56)))
(assert (= var56 (Concat var57 var58)))
(assert (= var58 (Concat var59 var60)))
(assert (= var0 "solution"))
(assert (= "7" (CharAt var49 936)))
(assert (= "a" (CharAt var49 251)))
(assert (= "j" (CharAt var41 1)))
(assert (= "=" (CharAt var52 989)))
(assert (= "1" (CharAt var3 923)))
(assert (= "H" (CharAt var38 797)))
(assert (= "4" (CharAt var15 217)))
(assert (= "]" (CharAt var15 249)))
(assert (= "2" (CharAt var27 954)))
(assert (= "$" (CharAt var1 608)))
(assert (= ":" (CharAt var39 750)))
(assert (= "{" (CharAt var28 60)))
(assert (= ";" (CharAt var23 998)))
(assert (= "M" (CharAt var3 246)))
(assert (= "^" (CharAt var15 915)))
(assert (= "z" (CharAt var56 959)))
(assert (= "g" (CharAt var39 423)))
(assert (= ")" (CharAt var18 300)))
(assert (= "e" (CharAt var3 552)))
(assert (= "k" (CharAt var1 994)))
(assert (= "U" (CharAt var1 470)))
(assert (= "n" (CharAt var60 771)))
(assert (= "$" (CharAt var30 122)))
(assert (= "'" (CharAt var27 868)))
(assert (= "P" (CharAt var55 614)))
(assert (= "E" (CharAt var57 822)))
(assert (= "\\" (CharAt var35 490)))
(assert (= "," (CharAt var31 363)))
(assert (= "d" (CharAt var0 739)))
(assert (= "j" (CharAt var2 607)))
(assert (= "^" (CharAt var12 413)))
(assert (= "I" (CharAt var49 811)))
(assert (= "F" (CharAt var21 190)))
(assert (= "m" (CharAt var17 744)))
(assert (= "r" (CharAt var20 167)))
(assert (= "S" (CharAt var18 803)))
(assert (= "r" (CharAt var24 343)))
(assert (= "f" (CharAt var3 412)))
(assert (= "s" (CharAt var58 697)))
(assert (= "v" (CharAt var17 271)))
(assert (= "0" (CharAt var14 618)))
(assert (= "|" (CharAt var4 704)))
(assert (= "A" (CharAt var36 199)))
(assert (= "4" (CharAt var24 633)))
(assert (= "]" (CharAt var41 187)))
(assert (= "?" (CharAt var30 798)))
(assert (= "V" (CharAt var1 826)))
(assert (= "-" (CharAt var44 461)))
(assert (= "s" (CharAt var41 280)))
(assert (= "[" (CharAt var25 685)))
(assert (= "Z" (CharAt var52 190)))
(assert (= "t" (CharAt var7 912)))
(assert (= "k" (CharAt var27 833)))
(assert (= "T" (CharAt var29 273)))
(assert (= "]" (CharAt var16 963)))
(assert (= "[" (CharAt var7 374)))
(assert (= "b" (CharAt var39 546)))
(assert (= "h" (CharAt var33 347)))
(assert (= "~" (CharAt var8 685)))
(assert (= "c" (CharAt var22 957)))
(assert (= "A" (CharAt var27 742)))
(assert (= "R" (CharAt var14 415)))
(assert (= "Q" (CharAt var52 206)))
(assert (= "~" (CharAt var57 173)))
(assert (= "@" (CharAt var54 703)))
(assert (= "G" (CharAt var23 80)))
(assert (= "," (CharAt var57 91)))
(assert (= "5" (CharAt var52 663)))
(assert (= "7" (CharAt var24 491)))
(assert (= "I" (CharAt var20 744)))
(assert (= ">" (CharAt var15 526)))
(assert (= "!" (CharAt var60 345)))
(assert (= "(" (CharAt var10 376)))
(assert (= ">" (CharAt var37 911)))
(assert (= "<" (CharAt var39 99)))
(assert (= "z" (CharAt var34 25)))
(assert (= "=" (CharAt var48 87)))
(assert (= ">" (CharAt var21 199)))
(assert (= "-" (CharAt var32 568)))
(assert (= "}" (CharAt var54 235)))
(assert (= "z" (CharAt var15 917)))
(assert (= "G" (CharAt var44 510)))
(assert (= "h" (CharAt var42 826)))
(assert (= "1" (CharAt var31 476)))
(assert (= "\"" (CharAt var42 423)))
(assert (= "r" (CharAt var22 152)))
(assert (= "=" (CharAt var57 179)))
(assert (= "p" (CharAt var2 815)))
(assert (= "2" (CharAt var13 87)))
(assert (= "`" (CharAt var36 919)))
(assert (= "*" (CharAt var0 535)))
(assert (= "Z" (CharAt var37 414)))
(assert (= "y" (CharAt var24 252)))
(assert (= "J" (CharAt var23 834)))
(assert (= "}" (CharAt var40 589)))
(assert (= "G" (CharAt var27 170)))
(assert (= "[" (CharAt var35 888)))
(assert (= "f" (CharAt var45 316)))
(assert (= "6" (CharAt var44 876)))
(assert (= "F" (CharAt var32 133)))
(assert (= "4" (CharAt var26 539)))
(assert (= "q" (CharAt var13 433)))
(assert (= "b" (CharAt var35 979)))
(assert (= "B" (CharAt var33 87)))
(assert (= "V" (CharAt var43 689)))
(assert (= "[" (CharAt var3 318)))
(assert (= "L" (CharAt var17 997)))
(assert (= ")" (CharAt var50 949)))
(assert (= "a" (CharAt var2 534)))
(assert (= "!" (CharAt var19 842)))
(assert (= "3" (CharAt var42 943)))
(assert (= "A" (CharAt var0 786)))
(assert (= "6" (CharAt var53 176)))
(assert (= "y" (CharAt var25 733)))
(assert (= "O" (CharAt var27 852)))
(assert (= "_" (CharAt var32 849)))
(assert (= "T" (CharAt var5 934)))
(assert (= "Y" (CharAt var3 761)))
(assert (= "%" (CharAt var50 537)))
(assert (= "t" (CharAt var6 77)))
(assert (= "V" (CharAt var28 896)))
(assert (= "e" (CharAt var12 626)))
(assert (= "D" (CharAt var9 344)))
(assert (= "2" (CharAt var22 562)))
(assert (= "w" (CharAt var31 307)))
(assert (= "W" (CharAt var36 383)))
(assert (= "e" (CharAt var60 845)))
(assert (= "t" (CharAt var15 473)))
(assert (= "e" (CharAt var13 574)))
(assert (= "$" (CharAt var6 638)))
(assert (= "+" (CharAt var21 362)))
(assert (= "8" (CharAt var36 724)))
(assert (= "7" (CharAt var56 348)))
(assert (= "*" (CharAt var14 902)))
(assert (= ";" (CharAt var46 207)))
(assert (= "Y" (CharAt var39 86)))
(assert (= "R" (CharAt var8 751)))
(assert (= "M" (CharAt var18 800)))
(assert (= "7" (CharAt var20 509)))
(assert (= "#" (CharAt var32 293)))
(assert (= "X" (CharAt var0 869)))
(assert (= "%" (CharAt var3 738)))
(assert (= "G" (CharAt var35 434)))
(assert (= "Y" (CharAt var32 246)))
(assert (= "+" (CharAt var3 76)))
(assert (= "}" (CharAt var51 401)))
(assert (= "s" (CharAt var39 393)))
(assert (= "(" (CharAt var31 20)))
(assert (= "3" (CharAt var3 33)))
(assert (= "A" (CharAt var28 107)))
(assert (= "@" (CharAt var18 909)))
(assert (= "?" (CharAt var55 878)))
(assert (= "O" (CharAt var9 85)))
(assert (= "`" (CharAt var46 803)))
(assert (= "1" (CharAt var41 813)))
(assert (= "R" (CharAt var60 186)))
(assert (= "]" (CharAt var25 686)))
(assert (= "%" (CharAt var41 138)))
(assert (= "v" (CharAt var12 838)))
(assert (= "!" (CharAt var54 372)))
(assert (= ">" (CharAt var24 971)))
(assert (= "C" (CharAt var12 949)))
(assert (= "\"" (CharAt var32 210)))
(assert (= "B" (CharAt var49 79)))
(assert (= "|" (CharAt var44 376)))
(assert (= "2" (CharAt var27 324)))
(assert (= "B" (CharAt var44 323)))
(assert (= "S" (CharAt var19 873)))
(assert (= "X" (CharAt var46 393)))
(assert (= "^" (CharAt var22 561)))
(assert (= "+" (CharAt var27 673)))
(assert (= "*" (CharAt var2 12)))
(assert (= "0" (CharAt var1 896)))
(assert (= "V" (CharAt var20 901)))
(assert (= "'" (CharAt var43 150)))
(assert (= "}" (CharAt var12 495)))
(assert (= "P" (CharAt var31 943)))
(assert (= "d" (CharAt var47 365)))
(assert (= "r" (CharAt var7 666)))
(assert (= "a" (CharAt var59 339)))
(assert (= "P" (CharAt var0 955)))
(assert (= "'" (CharAt var56 460)))
(assert (= "c" (CharAt var39 514)))
(assert (= "L" (CharAt var40 424)))
(assert (= "2" (CharAt var4 645)))
(assert (= "\"" (CharAt var57 220)))
(assert (= "P" (CharAt var60 203)))
(assert (= "\\" (CharAt var48 81)))
(assert (= "W" (CharAt var53 435)))
(assert (= "r" (CharAt var35 573)))
(assert (= "t" (CharAt var1 728)))
(assert (= "O" (CharAt var25 404)))
(assert (= "y" (CharAt var23 265)))
(assert (= "n" (CharAt var16 776)))
(assert (= "<" (CharAt var48 482)))
(assert (= "@" (CharAt var11 126)))
(assert (= "E" (CharAt var19 844)))
(assert (= "Y" (CharAt var31 5)))
(assert (= "^" (CharAt var41 906)))
(assert (= "]" (CharAt var42 895)))
(assert (= "O" (CharAt var29 859)))
(assert (= "H" (CharAt var1 688)))
(assert (= "}" (CharAt var44 387)))
(assert (= "'" (CharAt var35 243)))
(assert (= "w" (CharAt var10 209)))
(assert (= "?" (CharAt var8 387)))
(assert (= "L" (CharAt var7 336)))
(assert (= "b" (CharAt var3 928)))
(assert (= "+" (CharAt var28 570)))
(assert (= "(" (CharAt var12 560)))
(assert (= "b" (CharAt var21 716)))
(assert (= "5" (CharAt var30 20)))
(assert (= "s" (CharAt var12 533)))
(assert (= "y" (CharAt var48 100)))
(assert (= "A" (CharAt var8 613)))
(assert (= "\"" (CharAt var54 178)))
(assert (= "2" (CharAt var23 191)))
(assert (= "%" (CharAt var9 893)))
(assert (= "~" (CharAt var0 369)))
(assert (= "I" (CharAt var21 445)))
(assert (= "s" (CharAt var13 436)))
(assert (= "I" (CharAt var6 249)))
(assert (= "/" (CharAt var12 754)))
(assert (= "T" (CharAt var14 199)))
(assert (= "Z" (CharAt var40 934)))
(assert (= "?" (CharAt var32 132)))
(assert (= "~" (CharAt var52 956)))
(assert (= "e" (CharAt var39 49)))
(assert (= "%" (CharAt var28 823)))
(assert (= "z" (CharAt var45 489)))
(assert (= "!" (CharAt var15 367)))
(assert (= "<" (CharAt var18 818)))
(assert (= "K" (CharAt var58 107)))
(assert (= "$" (CharAt var9 799)))
(assert (= "[" (CharAt var17 806)))
(assert (= "W" (CharAt var5 623)))
(assert (= "V" (CharAt var0 71)))
(assert (= "1" (CharAt var14 24)))
(assert (= "\\" (CharAt var18 683)))
(assert (= "E" (CharAt var13 766)))
(assert (= "{" (CharAt var58 876)))
(assert (= ")" (CharAt var28 724)))
(assert (= "5" (CharAt var0 327)))
(assert (= "I" (CharAt var10 212)))
(assert (= "l" (CharAt var59 770)))
(assert (= "R" (CharAt var15 47)))
(assert (= "~" (CharAt var35 355)))
(assert (= "&" (CharAt var6 180)))
(assert (= "u" (CharAt var47 231)))
(assert (= "]" (CharAt var24 583)))
(assert (= "b" (CharAt var19 735)))
(assert (= "<" (CharAt var7 744)))
(assert (= "a" (CharAt var38 992)))
(assert (= "@" (CharAt var43 307)))
(assert (= ")" (CharAt var26 51)))
(assert (= "G" (CharAt var36 497)))
(assert (= "4" (CharAt var11 362)))
(assert (= "x" (CharAt var52 601)))
(assert (= "j" (CharAt var22 301)))
(assert (= "9" (CharAt var15 429)))
(assert (= "|" (CharAt var16 382)))
(assert (= "`" (CharAt var14 194)))
(assert (= "*" (CharAt var6 664)))
(assert (= "]" (CharAt var57 515)))
(assert (= "e" (CharAt var17 51)))
(assert (= "0" (CharAt var48 43)))
(assert (= "\"" (CharAt var24 674)))
(assert (= "w" (CharAt var55 493)))
(assert (= "(" (CharAt var18 506)))
(assert (= "U" (CharAt var19 67)))
(assert (= "k" (CharAt var35 146)))
(assert (= "C" (CharAt var32 196)))
(assert (= "[" (CharAt var21 94)))
(assert (= "W" (CharAt var3 87)))
(assert (= "p" (CharAt var39 739)))
(assert (= "=" (CharAt var40 199)))
(assert (= "Y" (CharAt var41 668)))
(assert (= "%" (CharAt var50 219)))
(assert (= "I" (CharAt var11 289)))
(assert (= "R" (CharAt var29 852)))
(assert (= "%" (CharAt var28 199)))
(assert (= "S" (CharAt var43 942)))
(assert (= "`" (CharAt var7 135)))
(assert (= "<" (CharAt var26 154)))
(assert (= "@" (CharAt var32 450)))
(assert (= "a" (CharAt var34 503)))
(assert (= "=" (CharAt var51 902)))
(assert (= "_" (CharAt var43 953)))
(assert (= "G" (CharAt var8 803)))
(assert (= "7" (CharAt var46 482)))
(assert (= "1" (CharAt var5 875)))
(assert (= "s" (CharAt var50 423)))
(assert (= "A" (CharAt var39 23)))
(assert (= "7" (CharAt var32 746)))
(assert (= "(" (CharAt var31 329)))
(assert (= "g" (CharAt var32 461)))
(assert (= "a" (CharAt var31 247)))
(assert (= "N" (CharAt var14 706)))
(assert (= "#" (CharAt var39 607)))
(assert (= "s" (CharAt var54 143)))
(assert (= "R" (CharAt var21 927)))
(assert (= ";" (CharAt var33 45)))
(assert (= "f" (CharAt var50 994)))
(assert (= ")" (CharAt var21 994)))
(assert (= "\\" (CharAt var14 90)))
(assert (= "F" (CharAt var7 937)))
(assert (= "l" (CharAt var3 333)))
(assert (= "@" (CharAt var54 572)))
(assert (= "E" (CharAt var0 6)))
(assert (= "y" (CharAt var29 665)))
(assert (= "Z" (CharAt var59 753)))
(assert (= "c" (CharAt var31 751)))
(assert (= "$" (CharAt var27 195)))
(assert (= "=" (CharAt var18 976)))
(assert (= "q" (CharAt var28 177)))
(assert (= "v" (CharAt var60 118)))
(assert (= "{" (CharAt var18 180)))
(assert (= "D" (CharAt var1 363)))
(assert (= "]" (CharAt var60 461)))
(assert (= "." (CharAt var43 604)))
(assert (= "M" (CharAt var26 157)))
(assert (= "z" (CharAt var59 337)))
(assert (= "m" (CharAt var51 459)))
(assert (= "e" (CharAt var3 15)))
(assert (= "]" (CharAt var4 220)))
(assert (= "C" (CharAt var39 620)))
(assert (= "n" (CharAt var19 893)))
(assert (= "z" (CharAt var54 418)))
(assert (= "E" (CharAt var36 656)))
(assert (= "A" (CharAt var47 453)))
(assert (= "^" (CharAt var11 399)))
(assert (= "C" (CharAt var60 678)))
(assert (= "F" (CharAt var41 230)))
(assert (= "m" (CharAt var47 604)))
(assert (= "*" (CharAt var54 512)))
(assert (= "y" (CharAt var34 577)))
(assert (= "D" (CharAt var60 629)))
(assert (= "\"" (CharAt var12 915)))
(assert (= ":" (CharAt var40 724)))
(assert (= "D" (CharAt var55 900)))
(assert (= "u" (CharAt var11 795)))
(assert (= "W" (CharAt var49 183)))
(assert (= "\\" (CharAt var60 432)))
(assert (= "." (CharAt var34 902)))
(assert (= "U" (CharAt var14 101)))
(assert (= "k" (CharAt var49 671)))
(assert (= "n" (CharAt var10 808)))
(assert (= "r" (CharAt var28 432)))
(assert (= "~" (CharAt var57 799)))
(assert (= "'" (CharAt var36 904)))
(assert (= "1" (CharAt var20 447)))
(assert (= "P" (CharAt var7 665)))
(assert (= "$" (CharAt var59 937)))
(assert (= "`" (CharAt var12 67)))
(assert (= "7" (CharAt var47 911)))
(assert (= "P" (CharAt var17 930)))
(assert (= "q" (CharAt var39 706)))
(assert (= "B" (CharAt var37 648)))
(assert (= "e" (CharAt var15 701)))
(assert (= "_" (CharAt var46 3)))
(assert (= "B" (CharAt var47 648)))
(assert (= "?" (CharAt var24 579)))
(assert (= "=" (CharAt var41 161)))
(assert (= "o" (CharAt var44 554)))
(assert (= "O" (CharAt var44 503)))
(assert (= "E" (CharAt var1 880)))
(assert (= "T" (CharAt var36 769)))
(assert (= "Q" (CharAt var35 216)))
(assert (= "&" (CharAt var26 879)))
(assert (= "@" (CharAt var15 919)))
(assert (= "-" (CharAt var45 954)))
(assert (= "G" (CharAt var59 36)))
(assert (= "o" (CharAt var7 828)))
(assert (= "W" (CharAt var5 99)))
(assert (= "I" (CharAt var3 183)))
(assert (= "6" (CharAt var11 521)))
(assert (= "!" (CharAt var39 942)))
(assert (= "L" (CharAt var37 976)))
(assert (= "u" (CharAt var58 804)))
(assert (= "`" (CharAt var55 514)))
(assert (= "^" (CharAt var2 974)))
(assert (= "X" (CharAt var52 971)))
(assert (= "L" (CharAt var10 732)))
(assert (= "X" (CharAt var25 819)))
(assert (= ")" (CharAt var2 733)))
(assert (= "|" (CharAt var19 303)))
(assert (= "+" (CharAt var36 535)))
(assert (= "F" (CharAt var12 429)))
(assert (= "/" (CharAt var10 818)))
(assert (= "O" (CharAt var0 432)))
(assert (= "`" (CharAt var4 850)))
(assert (= "x" (CharAt var39 396)))
(assert (= "j" (CharAt var30 139)))
(assert (= "^" (CharAt var18 966)))
(assert (= "[" (CharAt var3 448)))
(assert (= "n" (CharAt var40 800)))
(assert (= "X" (CharAt var44 362)))
(assert (= "^" (CharAt var0 198)))
(assert (= "U" (CharAt var15 920)))
(assert (= "q" (CharAt var39 866)))
(assert (= "o" (CharAt var38 614)))
(assert (= "l" (CharAt var49 384)))
(assert (= "n" (CharAt var43 619)))
(assert (= "x" (CharAt var7 227)))
(assert (= "m" (CharAt var33 273)))
(assert (= "`" (CharAt var36 94)))
(assert (= "L" (CharAt var17 652)))
(assert (= "Z" (CharAt var31 850)))
(assert (= "-" (CharAt var52 270)))
(assert (= "{" (CharAt var51 717)))
(assert (= "?" (CharAt var40 797)))
(assert (= "Z" (CharAt var22 226)))
(assert (= ";" (CharAt var26 516)))
(assert (= ">" (CharAt var22 638)))
(assert (= "k" (CharAt var17 817)))
(assert (= "u" (CharAt var13 614)))
(assert (= ">" (CharAt var41 459)))
(assert (= "m" (CharAt var35 977)))
(assert (= "G" (CharAt var38 491)))
(assert (= "A" (CharAt var48 475)))
(assert (= "k" (CharAt var8 32)))
(assert (= "#" (CharAt var48 720)))
(assert (= "W" (CharAt var11 769)))
(assert (= "W" (CharAt var4 190)))
(assert (= "=" (CharAt var33 546)))
(assert (= "b" (CharAt var8 753)))
(assert (= "\"" (CharAt var53 482)))
(assert (= "V" (CharAt var45 190)))
(assert (= "D" (CharAt var22 789)))
(assert (= "g" (CharAt var24 23)))
(assert (= "Q" (CharAt var59 876)))
(assert (= "g" (CharAt var31 959)))
(assert (= "B" (CharAt var50 938)))
(assert (= "7" (CharAt var38 379)))
(assert (= "z" (CharAt var5 396)))
(assert (= "7" (CharAt var33 81)))
(assert (= "-" (CharAt var38 215)))
(assert (= "O" (CharAt var46 604)))
(assert (= "N" (CharAt var16 685)))
(assert (= ")" (CharAt var21 102)))
(assert (= "b" (CharAt var45 865)))
(check-sat)
(get-model)